WARNING: for repeatability, setting FPU to use double precision
============================[ Problem Statistics ]=============================
|                                                                             |
|  Number of variables:           100                                         |
|  Number of clauses:             449                                         |
|  Parse time:                   0.00 s                                       |
|  Eliminated clauses:           0.00 Mb                                      |
|  Simplification time:          0.00 s                                       |
|                                                                             |
============================[ Search Statistics ]==============================
| Conflicts |          ORIGINAL         |          LEARNT          | Progress |
|           |    Vars  Clauses Literals |    Limit  Clauses Lit/Cl |          |
===============================================================================
|       100 |      99      442     1326 |      162      100      7 |  0.010 % |
===============================================================================
restarts              : 2
conflicts             : 167            (53975 /sec)
decisions             : 232            (0.00 % random) (74984 /sec)
propagations          : 4185           (1352618 /sec)
conflict literals     : 1228           (13.34 % deleted)
Memory used           : 13.00 MB
CPU time              : 0.003094 s

SATISFIABLE
